147085
[0, 2, 1, 51, 50, 52, 53, 54, 55, 81, 80, 79, 78, 56, 57, 77, 85, 76, 58, 59, 60, 61, 31, 30, 29, 28, 62, 72, 73, 27, 26, 25, 63, 24, 22, 23, 21, 65, 64, 66, 67, 68, 69, 90, 103, 101, 102, 113, 112, 114, 116, 119, 120, 121, 122, 100, 99, 94, 95, 97, 96, 124, 98, 127, 129, 130, 131, 132, 125, 126, 128, 133, 161, 160, 174, 203, 202, 204, 205, 206, 170, 171, 173, 172, 207, 201, 200, 199, 198, 197, 215, 216, 240, 241, 242, 243, 244, 239, 238, 237, 236, 235, 234, 233, 221, 232, 222, 223, 217, 218, 219, 220, 214, 213, 212, 211, 210, 209, 249, 248, 247, 246, 245, 250, 208, 252, 251, 254, 255, 256, 257, 313, 314, 315, 312, 311, 310, 321, 322, 323, 324, 325, 320, 319, 318, 317, 316, 309, 308, 307, 263, 264, 265, 266, 267, 304, 305, 268, 269, 270, 271, 300, 301, 302, 329, 330, 331, 332, 333, 334, 335, 336, 337, 338, 359, 369, 358, 357, 355, 356, 354, 353, 352, 350, 351, 349, 348, 347, 345, 346, 287, 286, 339, 285, 284, 279, 231, 230, 224, 229, 280, 281, 228, 225, 185, 148, 82, 83, 84, 226, 227, 282, 283, 343, 342, 341, 340, 372, 373, 374, 380, 390, 391, 398, 371, 382, 383, 393, 392, 397, 396, 395, 406, 412, 411, 422, 421, 426, 423, 424, 425, 409, 410, 408, 407, 402, 433, 437, 436, 435, 434, 438, 429, 432, 431, 405, 394, 381, 370, 187, 186, 188, 288, 289, 290, 291, 292, 344, 375, 376, 378, 388, 413, 420, 419, 418, 389, 379, 360, 361, 362, 368, 367, 377, 384, 385, 386, 387, 400, 399, 401, 403, 404, 416, 417, 427, 428, 430, 415, 414, 366, 363, 364, 365, 293, 294, 295, 296, 297, 298, 299, 272, 273, 274, 275, 276, 277, 278, 328, 327, 326, 303, 262, 261, 260, 259, 306, 258, 253, 196, 195, 194, 193, 192, 191, 183, 190, 189, 182, 181, 153, 152, 150, 149, 151, 142, 154, 155, 156, 157, 137, 138, 139, 140, 141, 158, 180, 179, 178, 177, 176, 175, 159, 162, 163, 164, 165, 168, 169, 167, 166, 134, 135, 136, 123, 118, 117, 115, 91, 92, 93, 104, 105, 106, 107, 143, 145, 111, 110, 109, 146, 147, 144, 184, 108, 89, 88, 87, 70, 71, 20, 19, 18, 17, 75, 74, 86, 49, 47, 46, 43, 41, 38, 37, 48, 45, 44, 42, 40, 39, 10, 11, 12, 13, 14, 15, 16, 32, 33, 34, 35, 36, 9, 8, 7, 6, 5, 4, 3]
